(declare-fun var0 () String)
(assert (str.in.re var0 (re.++ (re.union (re.+ (re.union (re.union (re.union (re.union (re.* (re.+ (re.* (re.union (str.to.re "9") (str.to.re "aa"))))) (re.* (re.union (re.union (re.union (str.to.re "b") (str.to.re "c")) (re.union (str.to.re "ddd") (str.to.re "eee"))) (re.union (re.+ (str.to.re "fff")) (re.* (str.to.re "ggg")))))) (re.union (re.union (re.union (re.* (re.+ (str.to.re "hhh"))) (re.* (re.+ (str.to.re "iii")))) (re.union (re.union (re.union (str.to.re "jj") (str.to.re "kkk")) (re.union (str.to.re "l") (str.to.re "m"))) (re.* (re.union (str.to.re "nnn") (str.to.re "ooo"))))) (re.union (re.+ (re.+ (re.+ (str.to.re "pp")))) (re.union (re.+ (re.+ (str.to.re "qqq"))) (re.union (re.* (str.to.re "rr")) (re.+ (str.to.re "ss"))))))) (re.* (re.+ (re.union (re.* (re.* (re.union (str.to.re "tt") (str.to.re "uuu")))) (re.+ (re.* (re.+ (str.to.re "v")))))))) (re.+ (re.* (re.union (re.* (re.+ (re.+ (re.+ (str.to.re "www"))))) (re.+ (re.union (re.+ (re.+ (str.to.re "x"))) (re.+ (re.+ (str.to.re "y")))))))))) (re.* (re.union (re.union (re.union (re.* (re.* (re.* (re.union (re.* (str.to.re "zzz")) (re.+ (str.to.re "AA")))))) (re.+ (re.* (re.union (re.* (re.+ (str.to.re "BBB"))) (re.* (re.union (str.to.re "C") (str.to.re "D"))))))) (re.union (re.+ (re.+ (re.union (re.+ (re.+ (str.to.re "EEE"))) (re.+ (re.+ (str.to.re "FF")))))) (re.* (re.union (re.* (re.union (re.union (str.to.re "GGG") (str.to.re "HH")) (re.+ (str.to.re "I")))) (re.* (re.* (re.union (str.to.re "JJJ") (str.to.re "KK")))))))) (re.union (re.* (re.* (re.* (re.+ (re.union (re.union (str.to.re "LLL") (str.to.re "MM")) (re.+ (str.to.re "NN"))))))) (re.* (re.+ (re.* (re.* (re.* (re.+ (str.to.re "OO"))))))))))) (re.+ (re.union (re.* (re.union (re.* (re.+ (re.+ (re.+ (re.+ (re.+ (str.to.re "00"))))))) (re.+ (re.union (re.union (re.+ (re.+ (re.* (str.to.re "1")))) (re.+ (re.* (re.* (str.to.re "222"))))) (re.* (re.+ (re.+ (re.union (str.to.re "33") (str.to.re "444"))))))))) (re.union (re.+ (re.+ (re.+ (re.union (re.* (re.* (re.+ (str.to.re "5")))) (re.+ (re.union (re.* (str.to.re "66")) (re.+ (str.to.re "7")))))))) (re.* (re.+ (re.* (re.* (re.* (re.+ (re.* (str.to.re "8"))))))))))))))
(assert (<= 15 (str.len var0)))
(check-sat)